50
100
100
100
98
97
97
94
92
92
91
85
84
84
83
82
82
80
78
78
78
78
75
74
73
72
71
70
70
68
66
65
65
54
50
50
50
49
49
49
47
44
44
42
42
41
41
41
40
36
36
30
